U_400_5.txt

VEHICLE     CAPACITY  LOCATIONS  CUSTOMER  OPTIONS  PRIORITIES  NUMTYPS
10		150		481		400		800		3		4

CUSTOMER  DEMAND
0	 15
1	 16
2	 19
3	 20
4	 11
5	 13
6	 14
7	 11
8	 11
9	 10
10	 19
11	 19
12	 18
13	 11
14	 11
15	 17
16	 19
17	 10
18	 16
19	 18
20	 20
21	 18
22	 13
23	 17
24	 15
25	 20
26	 15
27	 10
28	 15
29	 10
30	 10
31	 16
32	 16
33	 15
34	 13
35	 15
36	 17
37	 13
38	 17
39	 14
40	 10
41	 14
42	 13
43	 20
44	 17
45	 13
46	 17
47	 19
48	 10
49	 10
50	 17
51	 15
52	 17
53	 20
54	 12
55	 20
56	 10
57	 13
58	 17
59	 16
60	 17
61	 11
62	 14
63	 18
64	 10
65	 15
66	 16
67	 19
68	 14
69	 18
70	 20
71	 10
72	 20
73	 16
74	 11
75	 15
76	 11
77	 14
78	 14
79	 15
80	 19
81	 11
82	 13
83	 20
84	 14
85	 20
86	 12
87	 18
88	 15
89	 19
90	 20
91	 19
92	 19
93	 20
94	 14
95	 10
96	 14
97	 17
98	 19
99	 12
100	 12
101	 13
102	 14
103	 15
104	 11
105	 15
106	 11
107	 17
108	 15
109	 13
110	 18
111	 12
112	 19
113	 18
114	 16
115	 19
116	 12
117	 15
118	 14
119	 10
120	 10
121	 19
122	 10
123	 12
124	 16
125	 17
126	 16
127	 14
128	 14
129	 16
130	 14
131	 14
132	 20
133	 10
134	 18
135	 17
136	 12
137	 16
138	 13
139	 16
140	 17
141	 17
142	 14
143	 15
144	 19
145	 11
146	 18
147	 17
148	 13
149	 17
150	 14
151	 10
152	 13
153	 13
154	 19
155	 18
156	 14
157	 13
158	 18
159	 15
160	 13
161	 15
162	 13
163	 19
164	 16
165	 10
166	 18
167	 14
168	 20
169	 15
170	 10
171	 15
172	 11
173	 17
174	 16
175	 10
176	 16
177	 18
178	 14
179	 19
180	 13
181	 12
182	 17
183	 19
184	 12
185	 19
186	 11
187	 10
188	 15
189	 17
190	 19
191	 19
192	 16
193	 19
194	 15
195	 12
196	 16
197	 18
198	 19
199	 18
200	 16
201	 10
202	 12
203	 15
204	 14
205	 12
206	 13
207	 14
208	 10
209	 20
210	 17
211	 13
212	 19
213	 10
214	 17
215	 14
216	 20
217	 15
218	 13
219	 14
220	 15
221	 10
222	 15
223	 11
224	 20
225	 10
226	 13
227	 17
228	 13
229	 13
230	 17
231	 11
232	 18
233	 14
234	 11
235	 20
236	 13
237	 16
238	 12
239	 19
240	 19
241	 16
242	 17
243	 10
244	 12
245	 19
246	 13
247	 14
248	 20
249	 15
250	 19
251	 19
252	 15
253	 16
254	 11
255	 14
256	 12
257	 18
258	 13
259	 14
260	 19
261	 17
262	 11
263	 11
264	 11
265	 10
266	 17
267	 19
268	 19
269	 18
270	 10
271	 15
272	 15
273	 19
274	 15
275	 16
276	 16
277	 20
278	 10
279	 15
280	 18
281	 15
282	 14
283	 20
284	 15
285	 10
286	 10
287	 16
288	 13
289	 11
290	 13
291	 15
292	 18
293	 15
294	 18
295	 13
296	 11
297	 18
298	 15
299	 16
300	 13
301	 14
302	 13
303	 14
304	 17
305	 14
306	 15
307	 15
308	 10
309	 10
310	 14
311	 17
312	 15
313	 11
314	 10
315	 14
316	 19
317	 17
318	 14
319	 18
320	 20
321	 19
322	 13
323	 12
324	 15
325	 17
326	 12
327	 10
328	 11
329	 11
330	 11
331	 10
332	 19
333	 10
334	 11
335	 11
336	 10
337	 12
338	 19
339	 10
340	 11
341	 13
342	 11
343	 16
344	 12
345	 14
346	 11
347	 15
348	 20
349	 11
350	 11
351	 10
352	 17
353	 14
354	 15
355	 13
356	 16
357	 13
358	 13
359	 16
360	 13
361	 13
362	 17
363	 10
364	 20
365	 10
366	 15
367	 19
368	 20
369	 17
370	 12
371	 14
372	 17
373	 13
374	 16
375	 19
376	 12
377	 20
378	 18
379	 12
380	 11
381	 19
382	 17
383	 16
384	 18
385	 19
386	 13
387	 19
388	 10
389	 10
390	 17
391	 11
392	 12
393	 12
394	 19
395	 18
396	 16
397	 19
398	 20
399	 13

LOCATION  XCOORD  YCOORD  CAP  READY  DUE  TYP  SERVICETIME
0		11		12		-1		0		720	 0		0
1		37		38		-1		55		175		 2		6
2		18		5		-1		360		720		 2		6
3		31		49		-1		416		536		 2		6
4		17		47		-1		1		121		 2		6
5		26		10		-1		104		224		 2		6
6		31		47		-1		458		578		 2		6
7		2		33		-1		138		378		 2		6
8		20		27		-1		91		211		 2		6
9		9		13		-1		360		720		 2		6
10		34		19		-1		506		626		 2		6
11		42		41		-1		578		698		 2		6
12		30		3		-1		0		360		 2		6
13		33		40		-1		387		507		 2		6
14		35		30		-1		360		720		 2		6
15		40		7		-1		265		505		 2		6
16		26		31		-1		360		720		 2		6
17		49		24		-1		375		615		 2		6
18		8		2		-1		0		360		 2		6
19		38		45		-1		173		413		 2		6
20		37		21		-1		180		300		 2		6
21		1		19		-1		134		374		 2		6
22		11		5		-1		360		720		 2		6
23		34		42		-1		360		720		 2		6
24		33		21		-1		0		360		 2		6
25		5		19		-1		0		360		 2		6
26		31		38		-1		475		595		 2		6
27		5		14		-1		401		641		 2		6
28		2		43		-1		242		482		 2		6
29		29		1		-1		0		360		 2		6
30		46		36		-1		0		360		 2		6
31		25		21		-1		102		222		 2		6
32		12		12		-1		0		360		 2		6
33		37		16		-1		0		360		 2		6
34		4		39		-1		360		720		 2		6
35		46		43		-1		128		248		 2		6
36		11		42		-1		121		241		 2		6
37		5		33		-1		360		720		 2		6
38		40		40		-1		7		247		 2		6
39		23		31		-1		222		342		 2		6
40		6		5		-1		145		265		 2		6
41		43		35		-1		269		509		 2		6
42		48		44		-1		360		720		 2		6
43		41		17		-1		95		335		 2		6
44		13		36		-1		379		499		 2		6
45		12		24		-1		11		131		 2		6
46		29		16		-1		99		219		 2		6
47		32		19		-1		560		680		 2		6
48		38		18		-1		0		360		 2		6
49		18		35		-1		360		720		 2		6
50		46		45		-1		0		360		 2		6
51		26		4		-1		131		371		 2		6
52		32		28		-1		360		720		 2		6
53		12		25		-1		290		530		 2		6
54		41		13		-1		360		720		 2		6
55		5		18		-1		555		675		 2		6
56		14		9		-1		235		355		 2		6
57		34		34		-1		0		360		 2		6
58		19		42		-1		76		196		 2		6
59		33		36		-1		360		720		 2		6
60		14		11		-1		519		639		 2		6
61		43		27		-1		360		720		 2		6
62		48		16		-1		448		568		 2		6
63		10		29		-1		40		280		 2		6
64		35		42		-1		406		646		 2		6
65		27		30		-1		0		360		 2		6
66		29		2		-1		544		664		 2		6
67		33		49		-1		362		482		 2		6
68		39		28		-1		360		720		 2		6
69		1		23		-1		232		352		 2		6
70		12		14		-1		234		354		 2		6
71		15		17		-1		360		720		 2		6
72		20		21		-1		81		201		 2		6
73		29		4		-1		360		720		 2		6
74		18		48		-1		533		653		 2		6
75		37		33		-1		411		531		 2		6
76		41		28		-1		0		360		 2		6
77		34		14		-1		379		499		 2		6
78		43		50		-1		360		720		 2		6
79		34		30		-1		360		720		 2		6
80		20		39		-1		56		176		 2		6
81		16		43		-1		0		360		 2		6
82		3		7		-1		179		299		 2		6
83		45		23		-1		360		720		 2		6
84		44		15		-1		0		360		 2		6
85		19		11		-1		370		610		 2		6
86		31		23		-1		360		720		 2		6
87		45		28		-1		360		720		 2		6
88		8		6		-1		0		360		 2		6
89		2		27		-1		187		427		 2		6
90		31		3		-1		0		360		 2		6
91		10		44		-1		0		360		 2		6
92		13		43		-1		498		618		 2		6
93		23		4		-1		76		316		 2		6
94		10		15		-1		360		720		 2		6
95		16		28		-1		0		360		 2		6
96		24		44		-1		349		589		 2		6
97		32		13		-1		388		508		 2		6
98		10		39		-1		575		695		 2		6
99		15		44		-1		191		311		 2		6
100		24		11		-1		217		337		 2		6
101		23		23		-1		21		141		 2		6
102		50		1		-1		536		656		 2		6
103		27		44		-1		579		699		 2		6
104		18		10		-1		532		652		 2		6
105		39		19		-1		18		138		 2		6
106		45		2		-1		527		647		 2		6
107		6		1		-1		177		297		 2		6
108		9		9		-1		360		720		 2		6
109		40		40		-1		534		654		 2		6
110		29		27		-1		386		506		 2		6
111		46		24		-1		0		360		 2		6
112		50		6		-1		356		596		 2		6
113		11		30		-1		375		495		 2		6
114		39		37		-1		240		360		 2		6
115		17		34		-1		449		569		 2		6
116		19		22		-1		360		720		 2		6
117		5		32		-1		454		574		 2		6
118		21		46		-1		0		360		 2		6
119		16		44		-1		360		720		 2		6
120		9		31		-1		72		192		 2		6
121		9		49		-1		446		566		 2		6
122		23		18		-1		449		569		 2		6
123		37		35		-1		360		720		 2		6
124		9		9		-1		0		360		 2		6
125		16		33		-1		0		360		 2		6
126		17		12		-1		360		720		 2		6
127		16		31		-1		386		626		 2		6
128		36		39		-1		360		720		 2		6
129		12		16		-1		389		509		 2		6
130		18		17		-1		0		360		 2		6
131		43		25		-1		360		720		 2		6
132		5		3		-1		409		529		 2		6
133		38		20		-1		0		360		 2		6
134		5		41		-1		210		450		 2		6
135		30		6		-1		447		687		 2		6
136		15		17		-1		195		315		 2		6
137		33		19		-1		360		720		 2		6
138		48		42		-1		360		720		 2		6
139		16		48		-1		360		720		 2		6
140		38		40		-1		97		337		 2		6
141		25		35		-1		356		596		 2		6
142		7		23		-1		0		360		 2		6
143		16		31		-1		576		696		 2		6
144		6		9		-1		448		568		 2		6
145		45		28		-1		91		211		 2		6
146		42		6		-1		493		613		 2		6
147		45		28		-1		86		206		 2		6
148		1		14		-1		530		650		 2		6
149		26		18		-1		336		576		 2		6
150		50		40		-1		224		344		 2		6
151		23		32		-1		424		544		 2		6
152		27		20		-1		0		360		 2		6
153		15		35		-1		562		682		 2		6
154		7		37		-1		360		720		 2		6
155		10		25		-1		156		396		 2		6
156		2		3		-1		160		280		 2		6
157		9		19		-1		0		120		 2		6
158		7		43		-1		441		561		 2		6
159		7		30		-1		135		375		 2		6
160		28		36		-1		0		360		 2		6
161		10		19		-1		0		360		 2		6
162		28		39		-1		0		360		 2		6
163		48		7		-1		127		247		 2		6
164		7		10		-1		273		513		 2		6
165		8		8		-1		381		621		 2		6
166		43		38		-1		360		720		 2		6
167		37		42		-1		7		127		 2		6
168		46		15		-1		0		360		 2		6
169		4		40		-1		453		573		 2		6
170		5		49		-1		67		307		 2		6
171		12		24		-1		246		486		 2		6
172		16		30		-1		0		360		 2		6
173		13		33		-1		194		314		 2		6
174		16		6		-1		497		617		 2		6
175		5		24		-1		286		526		 2		6
176		41		15		-1		360		720		 2		6
177		35		32		-1		117		237		 2		6
178		8		30		-1		0		360		 2		6
179		28		44		-1		360		720		 2		6
180		47		2		-1		0		360		 2		6
181		28		35		-1		43		163		 2		6
182		21		13		-1		203		443		 2		6
183		12		32		-1		245		485		 2		6
184		22		35		-1		0		360		 2		6
185		13		25		-1		438		558		 2		6
186		15		33		-1		360		720		 2		6
187		48		9		-1		576		696		 2		6
188		9		4		-1		0		360		 2		6
189		44		45		-1		423		663		 2		6
190		3		35		-1		360		720		 2		6
191		3		12		-1		0		360		 2		6
192		29		40		-1		447		567		 2		6
193		18		23		-1		95		335		 2		6
194		22		22		-1		528		648		 2		6
195		26		35		-1		109		229		 2		6
196		33		41		-1		118		238		 2		6
197		42		11		-1		388		508		 2		6
198		33		43		-1		0		360		 2		6
199		8		4		-1		0		360		 2		6
200		18		3		-1		77		197		 2		6
201		35		30		-1		207		327		 2		6
202		40		36		-1		22		142		 2		6
203		3		29		-1		360		720		 2		6
204		34		11		-1		413		533		 2		6
205		11		24		-1		360		720		 2		6
206		49		50		-1		251		491		 2		6
207		36		18		-1		546		666		 2		6
208		15		4		-1		360		720		 2		6
209		36		16		-1		360		720		 2		6
210		33		47		-1		0		360		 2		6
211		26		13		-1		281		521		 2		6
212		46		2		-1		360		720		 2		6
213		12		36		-1		32		152		 2		6
214		7		44		-1		360		720		 2		6
215		15		48		-1		0		360		 2		6
216		32		19		-1		30		150		 2		6
217		47		12		-1		360		720		 2		6
218		15		23		-1		0		360		 2		6
219		26		8		-1		360		720		 2		6
220		50		22		-1		360		720		 2		6
221		31		5		-1		142		262		 2		6
222		48		34		-1		160		280		 2		6
223		45		18		-1		0		360		 2		6
224		28		42		-1		120		240		 2		6
225		7		13		-1		11		131		 2		6
226		25		19		-1		0		360		 2		6
227		4		38		-1		0		360		 2		6
228		25		41		-1		360		720		 2		6
229		24		28		-1		482		602		 2		6
230		13		39		-1		360		720		 2		6
231		46		23		-1		374		614		 2		6
232		26		6		-1		37		277		 2		6
233		22		43		-1		0		360		 2		6
234		11		36		-1		3		243		 2		6
235		17		6		-1		360		720		 2		6
236		45		43		-1		202		322		 2		6
237		16		3		-1		53		173		 2		6
238		9		45		-1		0		360		 2		6
239		13		20		-1		360		720		 2		6
240		21		12		-1		0		360		 2		6
241		46		28		-1		9		129		 2		6
242		9		13		-1		403		523		 2		6
243		46		9		-1		480		600		 2		6
244		20		21		-1		0		360		 2		6
245		25		31		-1		250		490		 2		6
246		8		22		-1		155		275		 2		6
247		28		30		-1		360		720		 2		6
248		43		2		-1		0		360		 2		6
249		30		25		-1		192		312		 2		6
250		40		18		-1		351		591		 2		6
251		6		29		-1		0		360		 2		6
252		24		49		-1		575		695		 2		6
253		31		9		-1		360		720		 2		6
254		17		40		-1		491		611		 2		6
255		23		7		-1		535		655		 2		6
256		44		38		-1		0		360		 2		6
257		35		17		-1		360		720		 2		6
258		34		31		-1		360		720		 2		6
259		36		35		-1		478		598		 2		6
260		41		8		-1		134		374		 2		6
261		4		42		-1		598		718		 2		6
262		46		1		-1		346		586		 2		6
263		41		28		-1		0		360		 2		6
264		47		4		-1		202		442		 2		6
265		13		5		-1		391		511		 2		6
266		12		16		-1		360		720		 2		6
267		20		10		-1		462		702		 2		6
268		15		32		-1		0		360		 2		6
269		26		26		-1		208		328		 2		6
270		50		5		-1		138		258		 2		6
271		45		23		-1		360		720		 2		6
272		11		2		-1		0		360		 2		6
273		15		19		-1		0		360		 2		6
274		8		26		-1		538		658		 2		6
275		10		10		-1		212		452		 2		6
276		39		50		-1		292		532		 2		6
277		45		37		-1		360		720		 2		6
278		47		14		-1		0		360		 2		6
279		18		16		-1		545		665		 2		6
280		24		11		-1		141		261		 2		6
281		45		20		-1		27		147		 2		6
282		25		48		-1		360		720		 2		6
283		47		50		-1		534		654		 2		6
284		27		5		-1		360		720		 2		6
285		41		28		-1		548		668		 2		6
286		24		41		-1		360		720		 2		6
287		13		21		-1		392		512		 2		6
288		41		13		-1		0		360		 2		6
289		36		11		-1		204		324		 2		6
290		38		26		-1		360		720		 2		6
291		20		18		-1		44		164		 2		6
292		22		49		-1		63		183		 2		6
293		32		25		-1		220		340		 2		6
294		37		9		-1		250		490		 2		6
295		11		26		-1		246		486		 2		6
296		3		32		-1		360		720		 2		6
297		33		6		-1		360		720		 2		6
298		13		37		-1		360		720		 2		6
299		37		31		-1		0		360		 2		6
300		23		5		-1		510		630		 2		6
301		46		31		-1		360		720		 2		6
302		15		11		-1		484		604		 2		6
303		6		5		-1		174		294		 2		6
304		31		30		-1		558		678		 2		6
305		6		10		-1		565		685		 2		6
306		6		46		-1		96		216		 2		6
307		41		3		-1		360		720		 2		6
308		36		18		-1		0		360		 2		6
309		15		20		-1		381		501		 2		6
310		37		40		-1		579		699		 2		6
311		15		35		-1		214		454		 2		6
312		37		40		-1		166		286		 2		6
313		8		17		-1		522		642		 2		6
314		5		28		-1		194		314		 2		6
315		26		12		-1		0		360		 2		6
316		26		41		-1		360		720		 2		6
317		31		42		-1		0		360		 2		6
318		21		8		-1		598		718		 2		6
319		41		30		-1		319		559		 2		6
320		39		22		-1		182		302		 2		6
321		29		41		-1		0		360		 2		6
322		46		29		-1		360		480		 2		6
323		46		43		-1		469		589		 2		6
324		9		11		-1		0		240		 2		6
325		41		41		-1		0		360		 2		6
326		19		2		-1		4		124		 2		6
327		31		3		-1		360		720		 2		6
328		45		44		-1		360		720		 2		6
329		10		46		-1		152		272		 2		6
330		13		7		-1		14		134		 2		6
331		4		29		-1		325		565		 2		6
332		41		26		-1		185		425		 2		6
333		1		36		-1		0		360		 2		6
334		38		9		-1		190		310		 2		6
335		18		13		-1		159		279		 2		6
336		47		28		-1		205		325		 2		6
337		26		34		-1		360		720		 2		6
338		6		10		-1		453		693		 2		6
339		16		42		-1		136		376		 2		6
340		22		3		-1		83		203		 2		6
341		12		41		-1		461		581		 2		6
342		20		25		-1		0		360		 2		6
343		37		29		-1		417		537		 2		6
344		34		27		-1		65		185		 2		6
345		6		39		-1		0		360		 2		6
346		33		27		-1		0		360		 2		6
347		38		18		-1		360		720		 2		6
348		8		10		-1		456		696		 2		6
349		19		34		-1		375		495		 2		6
350		39		29		-1		478		718		 2		6
351		21		25		-1		360		600		 2		6
352		38		22		-1		500		620		 2		6
353		48		6		-1		360		720		 2		6
354		40		34		-1		441		561		 2		6
355		25		34		-1		360		720		 2		6
356		33		9		-1		46		166		 2		6
357		24		20		-1		205		325		 2		6
358		43		42		-1		389		629		 2		6
359		45		48		-1		38		158		 2		6
360		26		50		-1		360		720		 2		6
361		46		10		-1		379		499		 2		6
362		44		44		-1		73		313		 2		6
363		38		25		-1		287		527		 2		6
364		42		11		-1		319		559		 2		6
365		8		6		-1		360		720		 2		6
366		19		36		-1		0		360		 2		6
367		39		43		-1		193		433		 2		6
368		10		2		-1		581		701		 2		6
369		35		30		-1		360		720		 2		6
370		1		35		-1		396		636		 2		6
371		48		6		-1		360		720		 2		6
372		16		14		-1		478		598		 2		6
373		7		30		-1		229		349		 2		6
374		1		28		-1		62		302		 2		6
375		41		4		-1		151		391		 2		6
376		30		37		-1		360		720		 2		6
377		50		2		-1		12		132		 2		6
378		12		9		-1		596		716		 2		6
379		18		5		-1		0		360		 2		6
380		27		10		-1		222		342		 2		6
381		22		30		-1		360		720		 2		6
382		36		50		-1		360		720		 2		6
383		41		23		-1		532		652		 2		6
384		45		34		-1		360		720		 2		6
385		19		42		-1		432		672		 2		6
386		25		44		-1		360		480		 2		6
387		7		9		-1		374		494		 2		6
388		28		9		-1		360		720		 2		6
389		49		22		-1		473		593		 2		6
390		26		5		-1		50		170		 2		6
391		39		12		-1		208		448		 2		6
392		5		28		-1		69		189		 2		6
393		12		3		-1		360		720		 2		6
394		15		15		-1		360		720		 2		6
395		8		5		-1		0		360		 2		6
396		34		10		-1		41		281		 2		6
397		17		27		-1		549		669		 2		6
398		29		28		-1		150		270		 2		6
399		17		25		-1		0		360		 2		6
400		7		40		-1		360		720		 2		6
401		29		13		5		0		720		 1		4
402		41		24		5		110		590		 1		4
403		39		41		3		0		720		 1		4
404		42		17		5		0		720		 1		4
405		26		8		5		116		596		 1		4
406		19		39		5		36		516		 1		4
407		7		37		5		74		554		 1		4
408		13		5		5		10		490		 1		4
409		36		40		5		62		542		 1		4
410		24		23		5		234		714		 1		4
411		31		28		4		0		720		 1		4
412		38		5		5		168		648		 1		4
413		41		23		5		163		643		 1		4
414		45		14		5		167		647		 1		4
415		24		10		3		0		720		 1		4
416		44		16		4		0		720		 1		4
417		18		30		3		0		720		 1		4
418		29		16		5		77		557		 1		4
419		45		40		5		136		616		 1		4
420		31		26		3		0		720		 1		4
421		13		44		5		155		635		 1		4
422		6		12		5		179		659		 1		4
423		27		41		5		0		720		 1		4
424		5		38		5		6		486		 1		4
425		23		22		5		120		600		 1		4
426		25		30		5		8		488		 1		4
427		36		8		3		0		720		 1		4
428		22		37		3		0		720		 1		4
429		36		9		5		207		687		 1		4
430		27		35		3		0		720		 1		4
431		6		33		4		0		720		 1		4
432		10		40		5		50		530		 1		4
433		14		36		5		233		713		 1		4
434		23		15		5		44		524		 1		4
435		16		16		5		238		718		 1		4
436		36		41		4		0		720		 1		4
437		31		6		5		195		675		 1		4
438		5		36		5		0		720		 1		4
439		12		20		5		0		720		 1		4
440		25		35		5		21		501		 1		4
441		32		27		5		100		580		 1		4
442		5		13		5		124		604		 1		4
443		19		40		3		0		720		 1		4
444		39		24		5		116		596		 1		4
445		34		6		5		125		605		 1		4
446		34		18		5		236		716		 1		4
447		28		19		5		4		484		 1		4
448		37		21		5		0		720		 1		4
449		26		11		5		231		711		 1		4
450		10		18		5		67		547		 1		4
451		11		38		5		126		606		 1		4
452		17		26		5		151		631		 1		4
453		30		22		5		239		719		 1		4
454		12		44		5		0		720		 1		4
455		26		13		3		0		720		 1		4
456		41		39		5		50		530		 1		4
457		13		21		5		88		568		 1		4
458		10		38		5		199		679		 1		4
459		39		14		5		106		586		 1		4
460		18		35		5		14		494		 1		4
461		17		34		3		0		720		 1		4
462		36		17		5		93		573		 1		4
463		25		33		5		0		720		 1		4
464		20		20		5		0		720		 1		4
465		22		40		4		0		720		 1		4
466		38		22		4		0		720		 1		4
467		29		5		5		170		650		 1		4
468		26		27		5		0		720		 1		4
469		36		20		5		95		575		 1		4
470		44		13		4		0		720		 1		4
471		41		18		4		0		720		 1		4
472		17		10		5		136		616		 1		4
473		13		20		5		151		631		 1		4
474		9		29		5		199		679		 1		4
475		11		5		5		186		666		 1		4
476		9		26		5		70		550		 1		4
477		32		36		5		86		566		 1		4
478		13		36		5		142		622		 1		4
479		42		8		5		0		720		 1		4
480		35		24		3		0		720		 1		4
OPTION  LOCATION  CUSTOMER  PRIO  SERVICETIME   COST
0		436		0		0		2		0
1		465		1		0		2		0
2		413		2		0		2		0
3		419		3		0		2		0
4		477		4		0		2		0
5		412		5		0		2		0
6		413		6		0		2		0
7		414		7		0		2		0
8		420		8		0		2		0
9		420		9		0		2		0
10		443		10		0		2		0
11		450		11		0		2		0
12		415		12		0		2		0
13		455		13		0		2		0
14		452		14		0		2		0
15		409		15		0		2		0
16		454		16		0		2		0
17		439		17		0		2		0
18		421		18		0		2		0
19		471		19		0		2		0
20		453		20		0		2		0
21		450		21		0		2		0
22		468		22		0		2		0
23		473		23		0		2		0
24		432		24		0		2		0
25		430		25		0		2		0
26		469		26		0		2		0
27		456		27		0		2		0
28		413		28		0		2		0
29		451		29		0		2		0
30		477		30		0		2		0
31		429		31		0		2		0
32		414		32		0		2		0
33		478		33		0		2		0
34		462		34		0		2		0
35		406		35		0		2		0
36		446		36		0		2		0
37		439		37		0		2		0
38		443		38		0		2		0
39		421		39		0		2		0
40		444		40		0		2		0
41		424		41		0		2		0
42		421		42		0		2		0
43		449		43		0		2		0
44		476		44		0		2		0
45		425		45		0		2		0
46		421		46		0		2		0
47		465		47		0		2		0
48		430		48		0		2		0
49		436		49		0		2		0
50		473		50		0		2		0
51		463		51		0		2		0
52		466		52		0		2		0
53		479		53		0		2		0
54		427		54		0		2		0
55		407		55		0		2		0
56		451		56		0		2		0
57		416		57		0		2		0
58		438		58		0		2		0
59		472		59		0		2		0
60		446		60		0		2		0
61		454		61		0		2		0
62		452		62		0		2		0
63		479		63		0		2		0
64		457		64		0		2		0
65		420		65		0		2		0
66		429		66		0		2		0
67		447		67		0		2		0
68		460		68		0		2		0
69		428		69		0		2		0
70		468		70		0		2		0
71		469		71		0		2		0
72		409		72		0		2		0
73		465		73		0		2		0
74		479		74		0		2		0
75		470		75		0		2		0
76		464		76		0		2		0
77		469		77		0		2		0
78		447		78		0		2		0
79		425		79		0		2		0
80		1		80		0		5		0
81		2		81		0		5		0
82		3		82		0		5		0
83		4		83		0		5		0
84		5		84		0		5		0
85		6		85		0		5		0
86		7		86		0		5		0
87		8		87		0		5		0
88		9		88		0		5		0
89		10		89		0		5		0
90		11		90		0		5		0
91		12		91		0		5		0
92		13		92		0		5		0
93		14		93		0		5		0
94		15		94		0		5		0
95		16		95		0		5		0
96		17		96		0		5		0
97		18		97		0		5		0
98		19		98		0		5		0
99		20		99		0		5		0
100		21		100		0		5		0
101		22		101		0		5		0
102		23		102		0		5		0
103		24		103		0		5		0
104		25		104		0		5		0
105		26		105		0		5		0
106		27		106		0		5		0
107		28		107		0		5		0
108		29		108		0		5		0
109		30		109		0		5		0
110		31		110		0		5		0
111		32		111		0		5		0
112		33		112		0		5		0
113		34		113		0		5		0
114		35		114		0		5		0
115		36		115		0		5		0
116		37		116		0		5		0
117		38		117		0		5		0
118		39		118		0		5		0
119		40		119		0		5		0
120		41		120		0		5		0
121		42		121		0		5		0
122		43		122		0		5		0
123		44		123		0		5		0
124		45		124		0		5		0
125		46		125		0		5		0
126		47		126		0		5		0
127		48		127		0		5		0
128		49		128		0		5		0
129		50		129		0		5		0
130		51		130		0		5		0
131		52		131		0		5		0
132		53		132		0		5		0
133		54		133		0		5		0
134		55		134		0		5		0
135		56		135		0		5		0
136		57		136		0		5		0
137		58		137		0		5		0
138		59		138		0		5		0
139		60		139		0		5		0
140		61		140		0		5		0
141		62		141		0		5		0
142		63		142		0		5		0
143		64		143		0		5		0
144		65		144		0		5		0
145		66		145		0		5		0
146		67		146		0		5		0
147		68		147		0		5		0
148		69		148		0		5		0
149		70		149		0		5		0
150		71		150		0		5		0
151		72		151		0		5		0
152		73		152		0		5		0
153		74		153		0		5		0
154		75		154		0		5		0
155		76		155		0		5		0
156		77		156		0		5		0
157		78		157		0		5		0
158		79		158		0		5		0
159		80		159		0		5		0
160		81		160		0		5		0
161		406		160		1		2		0
162		82		161		1		5		0
163		423		161		0		2		0
164		83		162		1		5		0
165		443		162		0		2		0
166		84		163		0		5		0
167		414		163		1		2		0
168		85		164		1		5		0
169		437		164		0		2		0
170		86		165		0		5		0
171		441		165		1		2		0
172		87		166		1		5		0
173		413		166		0		2		0
174		88		167		0		5		0
175		408		167		1		2		0
176		89		168		0		5		0
177		407		168		1		2		0
178		90		169		1		5		0
179		445		169		0		2		0
180		91		170		1		5		0
181		472		170		0		2		0
182		92		171		1		5		0
183		432		171		0		2		0
184		93		172		0		5		0
185		459		172		1		2		0
186		94		173		1		5		0
187		442		173		0		2		0
188		95		174		0		5		0
189		461		174		1		2		0
190		96		175		1		5		0
191		421		175		0		2		0
192		97		176		0		5		0
193		466		176		1		2		0
194		98		177		0		5		0
195		477		177		1		2		0
196		99		178		1		5		0
197		472		178		0		2		0
198		100		179		0		5		0
199		456		179		1		2		0
200		101		180		0		5		0
201		464		180		1		2		0
202		102		181		1		5		0
203		412		181		0		2		0
204		103		182		1		5		0
205		429		182		0		2		0
206		104		183		1		5		0
207		450		183		0		2		0
208		105		184		1		5		0
209		448		184		0		2		0
210		106		185		1		5		0
211		476		185		0		2		0
212		107		186		1		5		0
213		405		186		0		2		0
214		108		187		0		5		0
215		472		187		1		2		0
216		109		188		1		5		0
217		436		188		0		2		0
218		110		189		0		5		0
219		401		189		1		2		0
220		111		190		0		5		0
221		479		190		1		2		0
222		112		191		0		5		0
223		470		191		1		2		0
224		113		192		0		5		0
225		478		192		1		2		0
226		114		193		1		5		0
227		409		193		0		2		0
228		115		194		1		5		0
229		459		194		0		2		0
230		116		195		0		5		0
231		457		195		1		2		0
232		117		196		1		5		0
233		446		196		0		2		0
234		118		197		1		5		0
235		421		197		0		2		0
236		119		198		0		5		0
237		421		198		1		2		0
238		120		199		1		5		0
239		454		199		0		2		0
240		121		200		1		5		0
241		421		200		0		2		0
242		122		201		1		5		0
243		410		201		0		2		0
244		123		202		1		5		0
245		456		202		0		2		0
246		124		203		1		5		0
247		437		203		0		2		0
248		125		204		1		5		0
249		478		204		0		2		0
250		126		205		0		5		0
251		444		205		1		2		0
252		127		206		1		5		0
253		434		206		0		2		0
254		128		207		1		5		0
255		424		207		0		2		0
256		129		208		0		5		0
257		412		208		1		2		0
258		130		209		0		5		0
259		473		209		1		2		0
260		131		210		1		5		0
261		448		210		0		2		0
262		132		211		1		5		0
263		408		211		0		2		0
264		133		212		0		5		0
265		455		212		1		2		0
266		134		213		1		5		0
267		433		213		0		2		0
268		135		214		0		5		0
269		427		214		1		2		0
270		136		215		1		5		0
271		462		215		0		2		0
272		137		216		0		5		0
273		473		216		1		2		0
274		138		217		1		5		0
275		436		217		0		2		0
276		139		218		1		5		0
277		432		218		0		2		0
278		140		219		1		5		0
279		450		219		0		2		0
280		141		220		0		5		0
281		410		220		1		2		0
282		142		221		1		5		0
283		480		221		0		2		0
284		143		222		0		5		0
285		452		222		1		2		0
286		144		223		1		5		0
287		434		223		0		2		0
288		145		224		1		5		0
289		455		224		0		2		0
290		146		225		1		5		0
291		412		225		0		2		0
292		147		226		1		5		0
293		478		226		0		2		0
294		148		227		0		5		0
295		401		227		1		2		0
296		149		228		1		5		0
297		450		228		0		2		0
298		150		229		0		5		0
299		403		229		1		2		0
300		151		230		1		5		0
301		440		230		0		2		0
302		152		231		1		5		0
303		418		231		0		2		0
304		153		232		0		5		0
305		451		232		1		2		0
306		154		233		1		5		0
307		473		233		0		2		0
308		155		234		1		5		0
309		436		234		0		2		0
310		156		235		1		5		0
311		424		235		0		2		0
312		157		236		0		5		0
313		457		236		1		2		0
314		158		237		0		5		0
315		424		237		1		2		0
316		159		238		0		5		0
317		431		238		1		2		0
318		160		239		1		5		0
319		463		239		0		2		0
320		161		240		2		5		0
321		439		240		0		2		0
322		435		240		1		2		0
323		162		241		0		5		0
324		471		241		2		2		0
325		464		241		1		2		0
326		163		242		1		5		0
327		412		242		2		2		0
328		470		242		0		2		0
329		164		243		2		5		0
330		442		243		1		2		0
331		408		243		0		2		0
332		165		244		1		5		0
333		475		244		2		2		0
334		442		244		0		2		0
335		166		245		2		5		0
336		412		245		1		2		0
337		453		245		0		2		0
338		167		246		1		5		0
339		477		246		2		2		0
340		480		246		0		2		0
341		168		247		1		5		0
342		416		247		0		2		0
343		450		247		2		2		0
344		169		248		1		5		0
345		420		248		2		2		0
346		455		248		0		2		0
347		170		249		0		5		0
348		458		249		1		2		0
349		456		249		2		2		0
350		171		250		1		5		0
351		439		250		2		2		0
352		472		250		0		2		0
353		172		251		0		5		0
354		452		251		1		2		0
355		460		251		2		2		0
356		173		252		2		5		0
357		451		252		0		2		0
358		461		252		1		2		0
359		174		253		2		5		0
360		427		253		0		2		0
361		446		253		1		2		0
362		175		254		1		5		0
363		474		254		0		2		0
364		439		254		2		2		0
365		176		255		1		5		0
366		445		255		2		2		0
367		417		255		0		2		0
368		177		256		1		5		0
369		459		256		2		2		0
370		470		256		0		2		0
371		178		257		2		5		0
372		474		257		0		2		0
373		410		257		1		2		0
374		179		258		1		5		0
375		436		258		2		2		0
376		423		258		0		2		0
377		180		259		0		5		0
378		470		259		2		2		0
379		455		259		1		2		0
380		181		260		2		5		0
381		477		260		1		2		0
382		463		260		0		2		0
383		182		261		2		5		0
384		455		261		0		2		0
385		415		261		1		2		0
386		183		262		1		5		0
387		474		262		2		2		0
388		472		262		0		2		0
389		184		263		1		5		0
390		463		263		0		2		0
391		460		263		2		2		0
392		185		264		2		5		0
393		424		264		1		2		0
394		479		264		0		2		0
395		186		265		1		5		0
396		451		265		2		2		0
397		438		265		0		2		0
398		187		266		1		5		0
399		414		266		2		2		0
400		453		266		0		2		0
401		188		267		2		5		0
402		443		267		1		2		0
403		471		267		0		2		0
404		189		268		2		5		0
405		403		268		0		2		0
406		419		268		1		2		0
407		190		269		2		5		0
408		431		269		0		2		0
409		458		269		1		2		0
410		191		270		0		5		0
411		446		270		1		2		0
412		443		270		2		2		0
413		192		271		2		5		0
414		423		271		0		2		0
415		409		271		1		2		0
416		193		272		0		5		0
417		421		272		1		2		0
418		462		272		2		2		0
419		194		273		0		5		0
420		468		273		1		2		0
421		403		273		2		2		0
422		195		274		1		5		0
423		430		274		2		2		0
424		426		274		0		2		0
425		196		275		2		5		0
426		409		275		0		2		0
427		403		275		1		2		0
428		197		276		1		5		0
429		479		276		2		2		0
430		470		276		0		2		0
431		198		277		1		5		0
432		403		277		2		2		0
433		416		277		0		2		0
434		199		278		0		5		0
435		442		278		1		2		0
436		441		278		2		2		0
437		200		279		0		5		0
438		408		279		2		2		0
439		469		279		1		2		0
440		201		280		0		5		0
441		420		280		2		2		0
442		472		280		1		2		0
443		202		281		0		5		0
444		419		281		2		2		0
445		456		281		1		2		0
446		203		282		2		5		0
447		438		282		1		2		0
448		474		282		0		2		0
449		204		283		1		5		0
450		437		283		2		2		0
451		418		283		0		2		0
452		205		284		2		5		0
453		457		284		0		2		0
454		426		284		1		2		0
455		206		285		1		5		0
456		417		285		2		2		0
457		408		285		0		2		0
458		207		286		2		5		0
459		462		286		1		2		0
460		446		286		0		2		0
461		208		287		0		5		0
462		472		287		1		2		0
463		415		287		2		2		0
464		209		288		2		5		0
465		469		288		0		2		0
466		446		288		1		2		0
467		210		289		0		5		0
468		409		289		1		2		0
469		464		289		2		2		0
470		211		290		0		5		0
471		401		290		1		2		0
472		415		290		2		2		0
473		212		291		1		5		0
474		411		291		2		2		0
475		460		291		0		2		0
476		213		292		2		5		0
477		478		292		0		2		0
478		480		292		1		2		0
479		214		293		2		5		0
480		480		293		0		2		0
481		442		293		1		2		0
482		215		294		2		5		0
483		460		294		1		2		0
484		437		294		0		2		0
485		216		295		2		5		0
486		469		295		0		2		0
487		435		295		1		2		0
488		217		296		0		5		0
489		479		296		1		2		0
490		416		296		2		2		0
491		218		297		1		5		0
492		464		297		2		2		0
493		420		297		0		2		0
494		219		298		1		5		0
495		467		298		2		2		0
496		455		298		0		2		0
497		220		299		0		5		0
498		413		299		2		2		0
499		403		299		1		2		0
500		221		300		1		5		0
501		445		300		0		2		0
502		450		300		2		2		0
503		222		301		0		5		0
504		451		301		2		2		0
505		465		301		1		2		0
506		223		302		2		5		0
507		414		302		0		2		0
508		416		302		1		2		0
509		224		303		0		5		0
510		440		303		2		2		0
511		477		303		1		2		0
512		225		304		2		5		0
513		422		304		1		2		0
514		475		304		0		2		0
515		226		305		2		5		0
516		466		305		0		2		0
517		421		305		1		2		0
518		227		306		2		5		0
519		457		306		0		2		0
520		453		306		1		2		0
521		228		307		0		5		0
522		479		307		1		2		0
523		451		307		2		2		0
524		229		308		2		5		0
525		468		308		0		2		0
526		406		308		1		2		0
527		230		309		0		5		0
528		450		309		1		2		0
529		429		309		2		2		0
530		231		310		1		5		0
531		474		310		2		2		0
532		413		310		0		2		0
533		232		311		0		5		0
534		415		311		1		2		0
535		437		311		2		2		0
536		233		312		1		5		0
537		423		312		2		2		0
538		456		312		0		2		0
539		234		313		0		5		0
540		407		313		1		2		0
541		429		313		2		2		0
542		235		314		2		5		0
543		475		314		0		2		0
544		472		314		1		2		0
545		236		315		0		5		0
546		406		315		1		2		0
547		461		315		2		2		0
548		237		316		2		5		0
549		405		316		1		2		0
550		425		316		0		2		0
551		238		317		0		5		0
552		454		317		1		2		0
553		421		317		2		2		0
554		239		318		2		5		0
555		435		318		0		2		0
556		450		318		1		2		0
557		240		319		1		5		0
558		477		319		2		2		0
559		480		319		0		2		0
560		241		320		0		5		0
561		242		320		1		5		0
562		442		320		2		2		0
563		243		321		2		5		0
564		244		321		0		5		0
565		479		321		1		2		0
566		245		322		2		5		0
567		246		322		1		5		0
568		440		322		0		2		0
569		247		323		2		5		0
570		248		323		0		5		0
571		420		323		1		2		0
572		249		324		1		5		0
573		250		324		2		5		0
574		456		324		0		2		0
575		251		325		1		5		0
576		252		325		2		5		0
577		438		325		0		2		0
578		253		326		1		5		0
579		254		326		2		5		0
580		437		326		0		2		0
581		255		327		0		5		0
582		256		327		1		5		0
583		471		327		2		2		0
584		257		328		2		5		0
585		258		328		0		5		0
586		462		328		1		2		0
587		259		329		0		5		0
588		260		329		1		5		0
589		434		329		2		2		0
590		261		330		2		5		0
591		262		330		0		5		0
592		403		330		1		2		0
593		263		331		2		5		0
594		264		331		0		5		0
595		413		331		1		2		0
596		265		332		1		5		0
597		266		332		2		5		0
598		408		332		0		2		0
599		267		333		1		5		0
600		268		333		0		5		0
601		461		333		2		2		0
602		269		334		2		5		0
603		270		334		0		5		0
604		469		334		1		2		0
605		271		335		0		5		0
606		272		335		1		5		0
607		411		335		2		2		0
608		273		336		1		5		0
609		274		336		2		5		0
610		413		336		0		2		0
611		275		337		2		5		0
612		276		337		0		5		0
613		442		337		1		2		0
614		277		338		0		5		0
615		278		338		2		5		0
616		421		338		1		2		0
617		279		339		0		5		0
618		280		339		2		5		0
619		449		339		1		2		0
620		281		340		1		5		0
621		282		340		2		5		0
622		416		340		0		2		0
623		283		341		1		5		0
624		284		341		0		5		0
625		410		341		2		2		0
626		285		342		0		5		0
627		286		342		1		5		0
628		475		342		2		2		0
629		287		343		1		5		0
630		288		343		2		5		0
631		470		343		0		2		0
632		289		344		1		5		0
633		290		344		2		5		0
634		408		344		0		2		0
635		291		345		0		5		0
636		292		345		1		5		0
637		409		345		2		2		0
638		293		346		1		5		0
639		294		346		0		5		0
640		441		346		2		2		0
641		295		347		1		5		0
642		296		347		0		5		0
643		467		347		2		2		0
644		297		348		2		5		0
645		298		348		0		5		0
646		437		348		1		2		0
647		299		349		0		5		0
648		300		349		1		5		0
649		445		349		2		2		0
650		301		350		2		5		0
651		302		350		1		5		0
652		435		350		0		2		0
653		303		351		2		5		0
654		304		351		1		5		0
655		465		351		0		2		0
656		305		352		1		5		0
657		306		352		0		5		0
658		452		352		2		2		0
659		307		353		2		5		0
660		308		353		1		5		0
661		469		353		0		2		0
662		309		354		1		5		0
663		310		354		2		5		0
664		456		354		0		2		0
665		311		355		1		5		0
666		312		355		2		5		0
667		433		355		0		2		0
668		313		356		2		5		0
669		314		356		0		5		0
670		422		356		1		2		0
671		315		357		2		5		0
672		316		357		0		5		0
673		479		357		1		2		0
674		317		358		1		5		0
675		318		358		0		5		0
676		415		358		2		2		0
677		319		359		2		5		0
678		320		359		0		5		0
679		478		359		1		2		0
680		321		360		2		5		0
681		322		360		1		5		0
682		436		360		0		2		0
683		323		361		1		5		0
684		324		361		0		5		0
685		473		361		2		2		0
686		325		362		1		5		0
687		326		362		0		5		0
688		425		362		2		2		0
689		327		363		2		5		0
690		328		363		1		5		0
691		403		363		0		2		0
692		329		364		0		5		0
693		330		364		1		5		0
694		408		364		2		2		0
695		331		365		0		5		0
696		332		365		1		5		0
697		466		365		2		2		0
698		333		366		0		5		0
699		334		366		2		5		0
700		479		366		1		2		0
701		335		367		2		5		0
702		336		367		0		5		0
703		467		367		1		2		0
704		337		368		2		5		0
705		338		368		0		5		0
706		416		368		1		2		0
707		339		369		2		5		0
708		340		369		0		5		0
709		432		369		1		2		0
710		341		370		1		5		0
711		342		370		2		5		0
712		472		370		0		2		0
713		343		371		0		5		0
714		344		371		1		5		0
715		446		371		2		2		0
716		345		372		1		5		0
717		346		372		2		5		0
718		407		372		0		2		0
719		347		373		0		5		0
720		348		373		1		5		0
721		458		373		2		2		0
722		349		374		0		5		0
723		350		374		1		5		0
724		441		374		2		2		0
725		351		375		0		5		0
726		352		375		1		5		0
727		444		375		2		2		0
728		353		376		2		5		0
729		354		376		0		5		0
730		409		376		1		2		0
731		355		377		1		5		0
732		356		377		2		5		0
733		403		377		0		2		0
734		357		378		1		5		0
735		358		378		2		5		0
736		445		378		0		2		0
737		359		379		0		5		0
738		360		379		1		5		0
739		419		379		2		2		0
740		361		380		0		5		0
741		362		380		1		5		0
742		458		380		2		2		0
743		363		381		2		5		0
744		364		381		0		5		0
745		470		381		1		2		0
746		365		382		2		5		0
747		366		382		0		5		0
748		470		382		1		2		0
749		367		383		0		5		0
750		368		383		1		5		0
751		466		383		2		2		0
752		369		384		2		5		0
753		370		384		1		5		0
754		450		384		0		2		0
755		371		385		2		5		0
756		372		385		0		5		0
757		435		385		1		2		0
758		373		386		2		5		0
759		374		386		1		5		0
760		473		386		0		2		0
761		375		387		0		5		0
762		376		387		1		5		0
763		412		387		2		2		0
764		377		388		1		5		0
765		378		388		0		5		0
766		435		388		2		2		0
767		379		389		2		5		0
768		380		389		1		5		0
769		415		389		0		2		0
770		381		390		0		5		0
771		382		390		1		5		0
772		463		390		2		2		0
773		383		391		2		5		0
774		384		391		0		5		0
775		461		391		1		2		0
776		385		392		2		5		0
777		386		392		0		5		0
778		420		392		1		2		0
779		387		393		1		5		0
780		388		393		2		5		0
781		430		393		0		2		0
782		389		394		0		5		0
783		390		394		2		5		0
784		406		394		1		2		0
785		391		395		1		5		0
786		392		395		2		5		0
787		429		395		0		2		0
788		393		396		0		5		0
789		394		396		1		5		0
790		475		396		2		2		0
791		395		397		2		5		0
792		396		397		1		5		0
793		440		397		0		2		0
794		397		398		1		5		0
795		398		398		0		5		0
796		420		398		2		2		0
797		399		399		2		5		0
798		400		399		1		5		0
799		443		399		0		2		0
